100
1000
200
199
198
198
196
196
196
195
194
194
193
193
193
193
193
192
192
192
192
191
191
189
189
188
187
187
185
185
184
184
184
184
182
182
182
181
181
181
180
180
180
180
180
179
179
176
175
175
174
174
173
172
172
171
171
170
170
170
169
169
169
169
169
168
168
168
167
166
165
164
163
162
162
162
162
162
161
161
160
160
157
156
156
156
156
154
154
154
153
153
153
152
152
152
152
152
151
151
151
150
